DATASET = "thpack7";
INSTANCE = "058";

WIDTH = 233;
HEIGHT = 220;
LENGTH = 587;

NO_OF_SHAPES = 20;
size = [|
  105,81,46 |
  115,81,61 |
  72,51,23 |
  65,56,33 |
  60,44,21 |
  85,69,65 |
  90,82,35 |
  115,94,64 |
  80,53,33 |
  95,81,37 |
  66,46,45 |
  109,36,25 |
  89,62,50 |
  54,32,27 |
  79,33,32 |
  80,50,47 |
  81,57,44 |
  107,31,21 |
  91,85,80 |
  93,68,27 |
|];

verticality = [|
  0,1,1 |
  1,1,1 |
  0,0,1 |
  1,1,1 |
  0,0,1 |
  1,1,1 |
  0,0,1 |
  1,1,1 |
  0,1,1 |
  0,0,1 |
  1,1,1 |
  0,1,1 |
  1,1,1 |
  0,1,1 |
  0,1,1 |
  1,1,1 |
  1,1,1 |
  0,1,1 |
  1,1,1 |
  0,0,1 |
|];

box_count = [
  11,
  9,
  4,
  4,
  6,
  4,
  4,
  5,
  8,
  6,
  5,
  4,
  9,
  8,
  4,
  5,
  1,
  7,
  5,
  7,
];
